NAME: typeset.15577.36.sop
COMMENT: Received by Ghassan Shobaki
DIMENSION: 38
TYPE: SOP
EDGE_WEIGHT_TYPE: EXPLICIT
EDGE_WEIGHT_FORMAT: FULL_MATRIX
EDGE_WEIGHT_SECTION
38
0   0   0   0   0   0   0   0   0   0   0   0   0   0   0   0   0   0   0   0   0   0   0   0   0   0   0   0   0   0   0   0   0   0   0   0   0   34  
-1  0   6   7   7   3   7   10  11  11  6   8   8   9   8   6   10  12  8   7   9   9   8   8   9   7   10  8   13  7   11  9   7   9   9   13  13  0   
-1  6   0   1   9   7   11  12  15  13  10  12  12  11  10  8   14  6   10  11  11  13  12  12  13  11  14  12  9   9   13  13  11  11  5   15  9   0   
-1  7   -1  0   10  8   12  13  16  14  11  13  13  12  11  9   15  7   11  12  12  14  13  13  14  12  15  13  10  10  14  14  12  10  4   14  8   0   
-1  7   9   -1  0   8   6   7   8   10  5   7   9   8   9   7   9   11  7   6   10  8   5   7   6   6   7   7   10  6   8   6   6   6   8   10  12  0   
-1  3   7   8   8   0   8   9   10  10  7   9   11  8   9   7   9   9   7   6   8   10  9   9   10  8   11  9   12  8   8   10  10  10  10  14  14  0   
-1  7   11  -1  -1  -1  0   11  12  12  9   9   11  10  11  11  11  13  11  10  12  10  7   9   8   8   9   9   10  10  10  10  10  8   8   12  12  0   
-1  10  12  13  7   9   11  0   3   5   6   8   8   5   8   6   10  10  8   9   9   9   8   6   9   5   6   8   11  5   5   7   7   9   13  13  17  0   
-1  11  15  16  8   10  12  3   0   6   7   9   7   8   9   9   7   11  9   8   8   8   9   5   8   6   5   7   10  8   6   6   6   10  14  14  18  0   
-1  11  13  14  10  10  12  5   6   0   7   7   9   8   7   7   9   9   9   8   8   4   7   9   8   8   9   9   8   6   6   10  8   8   14  12  18  0   
-1  6   10  11  -1  7   -1  6   7   7   0   2   6   5   6   4   6   8   4   3   9   5   4   4   5   3   6   4   9   5   7   5   5   5   11  9   15  0   
-1  8   12  13  7   9   9   8   9   7   -1  0   4   3   4   4   4   10  4   3   7   3   2   4   3   3   4   4   9   5   5   5   5   5   11  9   15  0   
-1  8   12  13  9   11  11  8   7   9   -1  4   0   3   2   4   4   14  6   7   3   5   6   2   5   3   2   4   13  5   5   5   3   9   13  13  17  0   
-1  9   11  12  8   8   10  5   8   8   -1  3   3   0   3   3   5   11  5   6   4   6   5   3   6   2   3   5   12  4   2   6   6   8   12  12  16  0   
-1  8   10  11  9   9   11  8   9   7   -1  4   2   3   0   2   6   12  4   7   3   5   6   4   5   5   4   6   13  3   5   7   3   9   13  13  17  0   
-1  6   8   9   7   7   -1  6   9   7   -1  4   4   3   2   0   8   10  4   5   5   5   6   6   7   5   6   8   13  1   5   7   3   9   13  13  17  0   
-1  10  14  15  9   9   -1  10  7   9   -1  4   4   5   6   8   0   12  4   3   3   5   4   4   3   5   4   2   11  9   5   3   7   7   13  11  17  0   
-1  -1  6   7   11  9   -1  10  11  9   -1  10  14  11  12  10  12  0   10  9   13  11  12  12  13  11  14  12  3   11  11  13  13  11  9   15  13  0   
-1  8   10  11  7   7   11  -1  9   9   -1  4   6   5   4   4   4   10  0   3   5   7   4   6   3   7   6   4   13  5   7   3   5   7   13  11  17  0   
-1  7   11  12  6   6   10  9   -1  8   -1  3   7   6   7   5   3   9   3   0   6   4   3   7   4   6   7   5   10  6   6   4   6   6   12  10  16  0   
-1  9   11  12  10  8   12  9   8   -1  -1  7   3   4   3   5   3   13  5   6   0   6   7   5   6   6   5   5   14  6   4   6   6   10  14  14  18  0   
-1  9   13  14  8   10  10  9   8   4   5   -1  5   6   5   5   5   11  7   4   6   0   3   7   4   6   5   7   8   4   4   6   4   6   12  10  16  0   
-1  8   12  13  5   9   7   8   9   7   4   -1  6   5   6   6   4   12  4   -1  7   3   0   6   1   5   4   4   9   5   5   3   5   3   9   7   13  0   
-1  8   12  13  7   9   9   6   5   9   -1  4   2   3   4   6   4   12  6   7   5   7   -1  0   5   1   2   2   11  7   5   5   5   7   11  11  15  0   
-1  9   13  14  6   10  8   9   8   8   5   3   5   6   5   7   3   13  -1  4   6   4   -1  -1  0   6   3   3   10  6   6   2   4   4   10  8   14  0   
-1  7   11  12  6   8   8   5   6   8   -1  3   3   2   5   5   5   11  7   6   6   6   5   1   -1  0   3   3   10  6   4   6   6   6   10  10  14  0   
-1  10  14  15  7   11  9   6   5   9   6   4   -1  3   4   6   4   14  6   7   5   5   4   2   -1  -1  0   4   11  5   3   3   3   7   11  11  15  0   
-1  8   12  13  7   9   9   8   7   9   -1  4   4   5   6   8   2   12  4   5   5   7   4   2   3   3   -1  0   11  9   7   3   7   5   11  9   15  0   
-1  -1  9   10  10  12  -1  11  10  8   9   9   13  12  13  13  -1  -1  13  10  14  8   9   11  10  10  11  11  0   12  10  12  12  8   6   12  10  0   
-1  7   9   10  6   8   -1  5   8   6   5   5   5   4   3   -1  9   11  5   6   6   4   5   7   6   6   5   9   12  0   4   6   2   8   12  12  16  0   
-1  11  13  14  8   8   10  5   6   6   7   5   5   -1  5   5   5   11  7   6   4   4   5   5   6   4   3   7   10  4   0   6   6   8   12  12  16  0   
-1  9   13  14  -1  10  10  7   6   10  -1  5   5   6   7   7   -1  13  3   4   6   6   3   5   2   6   3   3   12  6   6   0   4   6   12  10  16  0   
-1  -1  11  12  6   10  10  7   6   8   5   5   3   6   -1  3   7   -1  5   6   6   4   5   5   4   6   3   7   -1  2   6   4   0   8   12  12  16  0   
-1  9   11  10  6   10  8   9   10  8   -1  -1  -1  -1  -1  -1  -1  -1  -1  -1  -1  -1  3   7   4   6   -1  -1  8   8   8   6   8   0   6   4   10  0   
-1  9   5   4   8   10  8   13  14  14  11  11  13  12  13  13  13  9   13  12  14  12  9   11  10  10  11  11  6   12  12  12  12  -1  0   10  4   0   
-1  13  15  14  10  14  12  13  14  12  -1  -1  -1  -1  -1  -1  -1  -1  -1  -1  -1  -1  7   11  8   10  11  9   12  12  12  10  12  -1  -1  0   6   0   
-1  13  9   8   12  14  12  17  18  18  15  15  17  16  17  17  17  13  17  16  18  16  13  15  14  14  15  15  10  16  16  16  16  10  -1  -1  0   0   
-1  -1  -1  -1  -1  -1  -1  -1  -1  -1  -1  -1  -1  -1  -1  -1  -1  -1  -1  -1  -1  -1  -1  -1  -1  -1  -1  -1  -1  -1  -1  -1  -1  -1  -1  -1  -1  0   
EOF